NAME : P112212.24216.tour
COMMENT : Length = 24216
COMMENT : Found by LKH-3 [Keld Helsgaun] Tue Dec 17 14:07:02 2024
TYPE : TOUR
DIMENSION : 120
TOUR_SECTION
1
111
2
112
3
113
4
50
79
62
46
52
49
53
76
61
75
77
72
68
55
80
65
51
47
59
56
69
66
57
74
45
58
73
71
48
67
60
64
63
54
78
70
114
5
115
6
116
7
117
8
106
107
99
97
87
101
93
91
103
109
102
95
85
104
110
92
98
94
84
96
90
108
86
82
100
89
105
81
83
88
118
9
39
28
41
30
19
18
17
13
36
16
23
24
40
26
27
32
33
44
11
29
31
25
20
35
38
34
22
12
37
43
21
15
14
42
119
10
120
-1
EOF
